p cnf 398 1093
c expr ((((((~ ((((((((x1@1 & x2@1) | (x1@2 & x2@2)) | (x1@3 & x2@3)) | (x1@4 & x2@4)) | (x1@5 & x2@5)) | (x1@6 & x2@6)) | (x1@7 & x2@7)) & (~ (((((((x1@1 <-> x2@1) & (x1@2 <-> x2@2)) & (x1@3 <-> x2@3)) & (x1@4 <-> x2@4)) & (x1@5 <-> x2@5)) & (x1@6 <-> x2@6)) & (x1@7 <-> x2@7))))) & (~ ((((((((x1@1 & x3@1) | (x1@2 & x3@2)) | (x1@3 & x3@3)) | (x1@4 & x3@4)) | (x1@5 & x3@5)) | (x1@6 & x3@6)) | (x1@7 & x3@7)) & (~ (((((((x1@1 <-> x3@1) & (x1@2 <-> x3@2)) & (x1@3 <-> x3@3)) & (x1@4 <-> x3@4)) & (x1@5 <-> x3@5)) & (x1@6 <-> x3@6)) & (x1@7 <-> x3@7)))))) & (~ ((((((((x2@1 & x3@1) | (x2@2 & x3@2)) | (x2@3 & x3@3)) | (x2@4 & x3@4)) | (x2@5 & x3@5)) | (x2@6 & x3@6)) | (x2@7 & x3@7)) & (~ (((((((x2@1 <-> x3@1) & (x2@2 <-> x3@2)) & (x2@3 <-> x3@3)) & (x2@4 <-> x3@4)) & (x2@5 <-> x3@5)) & (x2@6 <-> x3@6)) & (x2@7 <-> x3@7)))))) & (~ (((((((x1@1 <-> x2@1) & (x1@2 <-> x2@2)) & (x1@3 <-> x2@3)) & (x1@4 <-> x2@4)) & (x1@5 <-> x2@5)) & (x1@6 <-> x2@6)) & (x1@7 <-> x2@7)))) & (~ (((((((x1@1 <-> x3@1) & (x1@2 <-> x3@2)) & (x1@3 <-> x3@3)) & (x1@4 <-> x3@4)) & (x1@5 <-> x3@5)) & (x1@6 <-> x3@6)) & (x1@7 <-> x3@7)))) & (~ (((((((x2@1 <-> x3@1) & (x2@2 <-> x3@2)) & (x2@3 <-> x3@3)) & (x2@4 <-> x3@4)) & (x2@5 <-> x3@5)) & (x2@6 <-> x3@6)) & (x2@7 <-> x3@7))))
c expr ((((((((((((x1@1 & x1@2) & (~ x1@3)) & (~ x1@4)) & (~ x1@5)) & (~ x1@6)) & (~ x1@7)) | ((((((x1@1 & (~ x1@2)) & x1@3) & x1@4) & (~ x1@5)) & (~ x1@6)) & (~ x1@7))) | (((((((~ x1@1) & x1@2) & (~ x1@3)) & (~ x1@4)) & x1@5) & (~ x1@6)) & (~ x1@7))) | (((((((~ x1@1) & (~ x1@2)) & x1@3) & (~ x1@4)) & (~ x1@5)) & x1@6) & (~ x1@7))) | (((((((~ x1@1) & (~ x1@2)) & (~ x1@3)) & x1@4) & (~ x1@5)) & (~ x1@6)) & x1@7)) | (((((((~ x1@1) & (~ x1@2)) & (~ x1@3)) & (~ x1@4)) & x1@5) & (~ x1@6)) & (~ x1@7))) | (((((((~ x1@1) & (~ x1@2)) & (~ x1@3)) & (~ x1@4)) & (~ x1@5)) & x1@6) & x1@7))
c expr ((((((((((((x2@1 & x2@2) & (~ x2@3)) & (~ x2@4)) & (~ x2@5)) & (~ x2@6)) & (~ x2@7)) | ((((((x2@1 & (~ x2@2)) & x2@3) & x2@4) & (~ x2@5)) & (~ x2@6)) & (~ x2@7))) | (((((((~ x2@1) & x2@2) & (~ x2@3)) & (~ x2@4)) & x2@5) & (~ x2@6)) & (~ x2@7))) | (((((((~ x2@1) & (~ x2@2)) & x2@3) & (~ x2@4)) & (~ x2@5)) & x2@6) & (~ x2@7))) | (((((((~ x2@1) & (~ x2@2)) & (~ x2@3)) & x2@4) & (~ x2@5)) & (~ x2@6)) & x2@7)) | (((((((~ x2@1) & (~ x2@2)) & (~ x2@3)) & (~ x2@4)) & x2@5) & (~ x2@6)) & (~ x2@7))) | (((((((~ x2@1) & (~ x2@2)) & (~ x2@3)) & (~ x2@4)) & (~ x2@5)) & x2@6) & x2@7))
c expr ((((((((((((x3@1 & x3@2) & (~ x3@3)) & (~ x3@4)) & (~ x3@5)) & (~ x3@6)) & (~ x3@7)) | ((((((x3@1 & (~ x3@2)) & x3@3) & x3@4) & (~ x3@5)) & (~ x3@6)) & (~ x3@7))) | (((((((~ x3@1) & x3@2) & (~ x3@3)) & (~ x3@4)) & x3@5) & (~ x3@6)) & (~ x3@7))) | (((((((~ x3@1) & (~ x3@2)) & x3@3) & (~ x3@4)) & (~ x3@5)) & x3@6) & (~ x3@7))) | (((((((~ x3@1) & (~ x3@2)) & (~ x3@3)) & x3@4) & (~ x3@5)) & (~ x3@6)) & x3@7)) | (((((((~ x3@1) & (~ x3@2)) & (~ x3@3)) & (~ x3@4)) & x3@5) & (~ x3@6)) & (~ x3@7))) | (((((((~ x3@1) & (~ x3@2)) & (~ x3@3)) & (~ x3@4)) & (~ x3@5)) & x3@6) & x3@7))
c enc 2 x1@1
c enc 4 x2@1
c enc 7 x1@2
c enc 9 x2@2
c enc 13 x1@3
c enc 15 x2@3
c enc 19 x1@4
c enc 21 x2@4
c enc 25 x1@5
c enc 27 x2@5
c enc 31 x1@6
c enc 33 x2@6
c enc 37 x1@7
c enc 39 x2@7
c enc 71 x3@1
c enc 74 x3@2
c enc 78 x3@3
c enc 82 x3@4
c enc 86 x3@5
c enc 90 x3@6
c enc 94 x3@7
-1 -2 0
1 2 0
-3 -4 0
3 4 0
5 -3 0
5 -1 0
-5 1 3 0
-6 -7 0
6 7 0
-8 -9 0
8 9 0
10 -8 0
10 -6 0
-10 6 8 0
-11 5 0
-11 10 0
11 -5 -10 0
-12 -13 0
12 13 0
-14 -15 0
14 15 0
16 -14 0
16 -12 0
-16 12 14 0
-17 11 0
-17 16 0
17 -11 -16 0
-18 -19 0
18 19 0
-20 -21 0
20 21 0
22 -20 0
22 -18 0
-22 18 20 0
-23 17 0
-23 22 0
23 -17 -22 0
-24 -25 0
24 25 0
-26 -27 0
26 27 0
28 -26 0
28 -24 0
-28 24 26 0
-29 23 0
-29 28 0
29 -23 -28 0
-30 -31 0
30 31 0
-32 -33 0
32 33 0
34 -32 0
34 -30 0
-34 30 32 0
-35 29 0
-35 34 0
35 -29 -34 0
-36 -37 0
36 37 0
-38 -39 0
38 39 0
40 -38 0
40 -36 0
-40 36 38 0
-41 35 0
-41 40 0
41 -35 -40 0
42 -4 0
42 -1 0
-42 1 4 0
43 -2 0
43 -3 0
-43 3 2 0
-44 42 0
-44 43 0
44 -42 -43 0
45 -9 0
45 -6 0
-45 6 9 0
46 -7 0
46 -8 0
-46 8 7 0
-47 45 0
-47 46 0
47 -45 -46 0
-48 44 0
-48 47 0
48 -44 -47 0
49 -15 0
49 -12 0
-49 12 15 0
50 -13 0
50 -14 0
-50 14 13 0
-51 49 0
-51 50 0
51 -49 -50 0
-52 48 0
-52 51 0
52 -48 -51 0
53 -21 0
53 -18 0
-53 18 21 0
54 -19 0
54 -20 0
-54 20 19 0
-55 53 0
-55 54 0
55 -53 -54 0
-56 52 0
-56 55 0
56 -52 -55 0
57 -27 0
57 -24 0
-57 24 27 0
58 -25 0
58 -26 0
-58 26 25 0
-59 57 0
-59 58 0
59 -57 -58 0
-60 56 0
-60 59 0
60 -56 -59 0
61 -33 0
61 -30 0
-61 30 33 0
62 -31 0
62 -32 0
-62 32 31 0
-63 61 0
-63 62 0
63 -61 -62 0
-64 60 0
-64 63 0
64 -60 -63 0
65 -39 0
65 -36 0
-65 36 39 0
66 -37 0
66 -38 0
-66 38 37 0
-67 65 0
-67 66 0
67 -65 -66 0
-68 64 0
-68 67 0
68 -64 -67 0
69 -68 0
69 -41 0
-69 41 68 0
-70 -71 0
70 71 0
72 -70 0
72 -1 0
-72 1 70 0
-73 -74 0
73 74 0
75 -73 0
75 -6 0
-75 6 73 0
-76 72 0
-76 75 0
76 -72 -75 0
-77 -78 0
77 78 0
79 -77 0
79 -12 0
-79 12 77 0
-80 76 0
-80 79 0
80 -76 -79 0
-81 -82 0
81 82 0
83 -81 0
83 -18 0
-83 18 81 0
-84 80 0
-84 83 0
84 -80 -83 0
-85 -86 0
85 86 0
87 -85 0
87 -24 0
-87 24 85 0
-88 84 0
-88 87 0
88 -84 -87 0
-89 -90 0
89 90 0
91 -89 0
91 -30 0
-91 30 89 0
-92 88 0
-92 91 0
92 -88 -91 0
-93 -94 0
93 94 0
95 -93 0
95 -36 0
-95 36 93 0
-96 92 0
-96 95 0
96 -92 -95 0
97 -71 0
97 -1 0
-97 1 71 0
98 -2 0
98 -70 0
-98 70 2 0
-99 97 0
-99 98 0
99 -97 -98 0
100 -74 0
100 -6 0
-100 6 74 0
101 -7 0
101 -73 0
-101 73 7 0
-102 100 0
-102 101 0
102 -100 -101 0
-103 99 0
-103 102 0
103 -99 -102 0
104 -78 0
104 -12 0
-104 12 78 0
105 -13 0
105 -77 0
-105 77 13 0
-106 104 0
-106 105 0
106 -104 -105 0
-107 103 0
-107 106 0
107 -103 -106 0
108 -82 0
108 -18 0
-108 18 82 0
109 -19 0
109 -81 0
-109 81 19 0
-110 108 0
-110 109 0
110 -108 -109 0
-111 107 0
-111 110 0
111 -107 -110 0
112 -86 0
112 -24 0
-112 24 86 0
113 -25 0
113 -85 0
-113 85 25 0
-114 112 0
-114 113 0
114 -112 -113 0
-115 111 0
-115 114 0
115 -111 -114 0
116 -90 0
116 -30 0
-116 30 90 0
117 -31 0
117 -89 0
-117 89 31 0
-118 116 0
-118 117 0
118 -116 -117 0
-119 115 0
-119 118 0
119 -115 -118 0
120 -94 0
120 -36 0
-120 36 94 0
121 -37 0
121 -93 0
-121 93 37 0
-122 120 0
-122 121 0
122 -120 -121 0
-123 119 0
-123 122 0
123 -119 -122 0
124 -123 0
124 -96 0
-124 96 123 0
-125 69 0
-125 124 0
125 -69 -124 0
126 -70 0
126 -3 0
-126 3 70 0
127 -73 0
127 -8 0
-127 8 73 0
-128 126 0
-128 127 0
128 -126 -127 0
129 -77 0
129 -14 0
-129 14 77 0
-130 128 0
-130 129 0
130 -128 -129 0
131 -81 0
131 -20 0
-131 20 81 0
-132 130 0
-132 131 0
132 -130 -131 0
133 -85 0
133 -26 0
-133 26 85 0
-134 132 0
-134 133 0
134 -132 -133 0
135 -89 0
135 -32 0
-135 32 89 0
-136 134 0
-136 135 0
136 -134 -135 0
137 -93 0
137 -38 0
-137 38 93 0
-138 136 0
-138 137 0
138 -136 -137 0
139 -71 0
139 -3 0
-139 3 71 0
140 -4 0
140 -70 0
-140 70 4 0
-141 139 0
-141 140 0
141 -139 -140 0
142 -74 0
142 -8 0
-142 8 74 0
143 -9 0
143 -73 0
-143 73 9 0
-144 142 0
-144 143 0
144 -142 -143 0
-145 141 0
-145 144 0
145 -141 -144 0
146 -78 0
146 -14 0
-146 14 78 0
147 -15 0
147 -77 0
-147 77 15 0
-148 146 0
-148 147 0
148 -146 -147 0
-149 145 0
-149 148 0
149 -145 -148 0
150 -82 0
150 -20 0
-150 20 82 0
151 -21 0
151 -81 0
-151 81 21 0
-152 150 0
-152 151 0
152 -150 -151 0
-153 149 0
-153 152 0
153 -149 -152 0
154 -86 0
154 -26 0
-154 26 86 0
155 -27 0
155 -85 0
-155 85 27 0
-156 154 0
-156 155 0
156 -154 -155 0
-157 153 0
-157 156 0
157 -153 -156 0
158 -90 0
158 -32 0
-158 32 90 0
159 -33 0
159 -89 0
-159 89 33 0
-160 158 0
-160 159 0
160 -158 -159 0
-161 157 0
-161 160 0
161 -157 -160 0
162 -94 0
162 -38 0
-162 38 94 0
163 -39 0
163 -93 0
-163 93 39 0
-164 162 0
-164 163 0
164 -162 -163 0
-165 161 0
-165 164 0
165 -161 -164 0
166 -165 0
166 -138 0
-166 138 165 0
-167 125 0
-167 166 0
167 -125 -166 0
-168 2 0
-168 3 0
168 -2 -3 0
-169 4 0
-169 1 0
169 -4 -1 0
170 -169 0
170 -168 0
-170 168 169 0
-171 7 0
-171 8 0
171 -7 -8 0
-172 9 0
-172 6 0
172 -9 -6 0
173 -172 0
173 -171 0
-173 171 172 0
174 -173 0
174 -170 0
-174 170 173 0
-175 13 0
-175 14 0
175 -13 -14 0
-176 15 0
-176 12 0
176 -15 -12 0
177 -176 0
177 -175 0
-177 175 176 0
178 -177 0
178 -174 0
-178 174 177 0
-179 19 0
-179 20 0
179 -19 -20 0
-180 21 0
-180 18 0
180 -21 -18 0
181 -180 0
181 -179 0
-181 179 180 0
182 -181 0
182 -178 0
-182 178 181 0
-183 25 0
-183 26 0
183 -25 -26 0
-184 27 0
-184 24 0
184 -27 -24 0
185 -184 0
185 -183 0
-185 183 184 0
186 -185 0
186 -182 0
-186 182 185 0
-187 31 0
-187 32 0
187 -31 -32 0
-188 33 0
-188 30 0
188 -33 -30 0
189 -188 0
189 -187 0
-189 187 188 0
190 -189 0
190 -186 0
-190 186 189 0
-191 37 0
-191 38 0
191 -37 -38 0
-192 39 0
-192 36 0
192 -39 -36 0
193 -192 0
193 -191 0
-193 191 192 0
194 -193 0
194 -190 0
-194 190 193 0
-195 167 0
-195 194 0
195 -167 -194 0
-196 2 0
-196 70 0
196 -2 -70 0
-197 71 0
-197 1 0
197 -71 -1 0
198 -197 0
198 -196 0
-198 196 197 0
-199 7 0
-199 73 0
199 -7 -73 0
-200 74 0
-200 6 0
200 -74 -6 0
201 -200 0
201 -199 0
-201 199 200 0
202 -201 0
202 -198 0
-202 198 201 0
-203 13 0
-203 77 0
203 -13 -77 0
-204 78 0
-204 12 0
204 -78 -12 0
205 -204 0
205 -203 0
-205 203 204 0
206 -205 0
206 -202 0
-206 202 205 0
-207 19 0
-207 81 0
207 -19 -81 0
-208 82 0
-208 18 0
208 -82 -18 0
209 -208 0
209 -207 0
-209 207 208 0
210 -209 0
210 -206 0
-210 206 209 0
-211 25 0
-211 85 0
211 -25 -85 0
-212 86 0
-212 24 0
212 -86 -24 0
213 -212 0
213 -211 0
-213 211 212 0
214 -213 0
214 -210 0
-214 210 213 0
-215 31 0
-215 89 0
215 -31 -89 0
-216 90 0
-216 30 0
216 -90 -30 0
217 -216 0
217 -215 0
-217 215 216 0
218 -217 0
218 -214 0
-218 214 217 0
-219 37 0
-219 93 0
219 -37 -93 0
-220 94 0
-220 36 0
220 -94 -36 0
221 -220 0
221 -219 0
-221 219 220 0
222 -221 0
222 -218 0
-222 218 221 0
-223 195 0
-223 222 0
223 -195 -222 0
-224 4 0
-224 70 0
224 -4 -70 0
-225 71 0
-225 3 0
225 -71 -3 0
226 -225 0
226 -224 0
-226 224 225 0
-227 9 0
-227 73 0
227 -9 -73 0
-228 74 0
-228 8 0
228 -74 -8 0
229 -228 0
229 -227 0
-229 227 228 0
230 -229 0
230 -226 0
-230 226 229 0
-231 15 0
-231 77 0
231 -15 -77 0
-232 78 0
-232 14 0
232 -78 -14 0
233 -232 0
233 -231 0
-233 231 232 0
234 -233 0
234 -230 0
-234 230 233 0
-235 21 0
-235 81 0
235 -21 -81 0
-236 82 0
-236 20 0
236 -82 -20 0
237 -236 0
237 -235 0
-237 235 236 0
238 -237 0
238 -234 0
-238 234 237 0
-239 27 0
-239 85 0
239 -27 -85 0
-240 86 0
-240 26 0
240 -86 -26 0
241 -240 0
241 -239 0
-241 239 240 0
242 -241 0
242 -238 0
-242 238 241 0
-243 33 0
-243 89 0
243 -33 -89 0
-244 90 0
-244 32 0
244 -90 -32 0
245 -244 0
245 -243 0
-245 243 244 0
246 -245 0
246 -242 0
-246 242 245 0
-247 39 0
-247 93 0
247 -39 -93 0
-248 94 0
-248 38 0
248 -94 -38 0
249 -248 0
249 -247 0
-249 247 248 0
250 -249 0
250 -246 0
-250 246 249 0
-251 223 0
-251 250 0
251 -223 -250 0
251 0
-252 2 0
-252 7 0
252 -2 -7 0
-253 -13 0
253 13 0
-254 252 0
-254 253 0
254 -252 -253 0
-255 -19 0
255 19 0
-256 254 0
-256 255 0
256 -254 -255 0
-257 -25 0
257 25 0
-258 256 0
-258 257 0
258 -256 -257 0
-259 -31 0
259 31 0
-260 258 0
-260 259 0
260 -258 -259 0
-261 -37 0
261 37 0
-262 260 0
-262 261 0
262 -260 -261 0
-263 -7 0
263 7 0
-264 2 0
-264 263 0
264 -2 -263 0
-265 264 0
-265 13 0
265 -264 -13 0
-266 265 0
-266 19 0
266 -265 -19 0
-267 266 0
-267 257 0
267 -266 -257 0
-268 267 0
-268 259 0
268 -267 -259 0
-269 268 0
-269 261 0
269 -268 -261 0
270 -269 0
270 -262 0
-270 262 269 0
-271 -2 0
271 2 0
-272 271 0
-272 7 0
272 -271 -7 0
-273 272 0
-273 253 0
273 -272 -253 0
-274 273 0
-274 255 0
274 -273 -255 0
-275 274 0
-275 25 0
275 -274 -25 0
-276 275 0
-276 259 0
276 -275 -259 0
-277 276 0
-277 261 0
277 -276 -261 0
278 -277 0
278 -270 0
-278 270 277 0
-279 271 0
-279 263 0
279 -271 -263 0
-280 279 0
-280 13 0
280 -279 -13 0
-281 280 0
-281 255 0
281 -280 -255 0
-282 281 0
-282 257 0
282 -281 -257 0
-283 282 0
-283 31 0
283 -282 -31 0
-284 283 0
-284 261 0
284 -283 -261 0
285 -284 0
285 -278 0
-285 278 284 0
-286 279 0
-286 253 0
286 -279 -253 0
-287 286 0
-287 19 0
287 -286 -19 0
-288 287 0
-288 257 0
288 -287 -257 0
-289 288 0
-289 259 0
289 -288 -259 0
-290 289 0
-290 37 0
290 -289 -37 0
291 -290 0
291 -285 0
-291 285 290 0
-292 286 0
-292 255 0
292 -286 -255 0
-293 292 0
-293 25 0
293 -292 -25 0
-294 293 0
-294 259 0
294 -293 -259 0
-295 294 0
-295 261 0
295 -294 -261 0
296 -295 0
296 -291 0
-296 291 295 0
-297 292 0
-297 257 0
297 -292 -257 0
-298 297 0
-298 31 0
298 -297 -31 0
-299 298 0
-299 37 0
299 -298 -37 0
300 -299 0
300 -296 0
-300 296 299 0
300 0
-301 4 0
-301 9 0
301 -4 -9 0
-302 -15 0
302 15 0
-303 301 0
-303 302 0
303 -301 -302 0
-304 -21 0
304 21 0
-305 303 0
-305 304 0
305 -303 -304 0
-306 -27 0
306 27 0
-307 305 0
-307 306 0
307 -305 -306 0
-308 -33 0
308 33 0
-309 307 0
-309 308 0
309 -307 -308 0
-310 -39 0
310 39 0
-311 309 0
-311 310 0
311 -309 -310 0
-312 -9 0
312 9 0
-313 4 0
-313 312 0
313 -4 -312 0
-314 313 0
-314 15 0
314 -313 -15 0
-315 314 0
-315 21 0
315 -314 -21 0
-316 315 0
-316 306 0
316 -315 -306 0
-317 316 0
-317 308 0
317 -316 -308 0
-318 317 0
-318 310 0
318 -317 -310 0
319 -318 0
319 -311 0
-319 311 318 0
-320 -4 0
320 4 0
-321 320 0
-321 9 0
321 -320 -9 0
-322 321 0
-322 302 0
322 -321 -302 0
-323 322 0
-323 304 0
323 -322 -304 0
-324 323 0
-324 27 0
324 -323 -27 0
-325 324 0
-325 308 0
325 -324 -308 0
-326 325 0
-326 310 0
326 -325 -310 0
327 -326 0
327 -319 0
-327 319 326 0
-328 320 0
-328 312 0
328 -320 -312 0
-329 328 0
-329 15 0
329 -328 -15 0
-330 329 0
-330 304 0
330 -329 -304 0
-331 330 0
-331 306 0
331 -330 -306 0
-332 331 0
-332 33 0
332 -331 -33 0
-333 332 0
-333 310 0
333 -332 -310 0
334 -333 0
334 -327 0
-334 327 333 0
-335 328 0
-335 302 0
335 -328 -302 0
-336 335 0
-336 21 0
336 -335 -21 0
-337 336 0
-337 306 0
337 -336 -306 0
-338 337 0
-338 308 0
338 -337 -308 0
-339 338 0
-339 39 0
339 -338 -39 0
340 -339 0
340 -334 0
-340 334 339 0
-341 335 0
-341 304 0
341 -335 -304 0
-342 341 0
-342 27 0
342 -341 -27 0
-343 342 0
-343 308 0
343 -342 -308 0
-344 343 0
-344 310 0
344 -343 -310 0
345 -344 0
345 -340 0
-345 340 344 0
-346 341 0
-346 306 0
346 -341 -306 0
-347 346 0
-347 33 0
347 -346 -33 0
-348 347 0
-348 39 0
348 -347 -39 0
349 -348 0
349 -345 0
-349 345 348 0
349 0
-350 71 0
-350 74 0
350 -71 -74 0
-351 -78 0
351 78 0
-352 350 0
-352 351 0
352 -350 -351 0
-353 -82 0
353 82 0
-354 352 0
-354 353 0
354 -352 -353 0
-355 -86 0
355 86 0
-356 354 0
-356 355 0
356 -354 -355 0
-357 -90 0
357 90 0
-358 356 0
-358 357 0
358 -356 -357 0
-359 -94 0
359 94 0
-360 358 0
-360 359 0
360 -358 -359 0
-361 -74 0
361 74 0
-362 71 0
-362 361 0
362 -71 -361 0
-363 362 0
-363 78 0
363 -362 -78 0
-364 363 0
-364 82 0
364 -363 -82 0
-365 364 0
-365 355 0
365 -364 -355 0
-366 365 0
-366 357 0
366 -365 -357 0
-367 366 0
-367 359 0
367 -366 -359 0
368 -367 0
368 -360 0
-368 360 367 0
-369 -71 0
369 71 0
-370 369 0
-370 74 0
370 -369 -74 0
-371 370 0
-371 351 0
371 -370 -351 0
-372 371 0
-372 353 0
372 -371 -353 0
-373 372 0
-373 86 0
373 -372 -86 0
-374 373 0
-374 357 0
374 -373 -357 0
-375 374 0
-375 359 0
375 -374 -359 0
376 -375 0
376 -368 0
-376 368 375 0
-377 369 0
-377 361 0
377 -369 -361 0
-378 377 0
-378 78 0
378 -377 -78 0
-379 378 0
-379 353 0
379 -378 -353 0
-380 379 0
-380 355 0
380 -379 -355 0
-381 380 0
-381 90 0
381 -380 -90 0
-382 381 0
-382 359 0
382 -381 -359 0
383 -382 0
383 -376 0
-383 376 382 0
-384 377 0
-384 351 0
384 -377 -351 0
-385 384 0
-385 82 0
385 -384 -82 0
-386 385 0
-386 355 0
386 -385 -355 0
-387 386 0
-387 357 0
387 -386 -357 0
-388 387 0
-388 94 0
388 -387 -94 0
389 -388 0
389 -383 0
-389 383 388 0
-390 384 0
-390 353 0
390 -384 -353 0
-391 390 0
-391 86 0
391 -390 -86 0
-392 391 0
-392 357 0
392 -391 -357 0
-393 392 0
-393 359 0
393 -392 -359 0
394 -393 0
394 -389 0
-394 389 393 0
-395 390 0
-395 355 0
395 -390 -355 0
-396 395 0
-396 90 0
396 -395 -90 0
-397 396 0
-397 94 0
397 -396 -94 0
398 -397 0
398 -394 0
-398 394 397 0
398 0
